! Analog Devices, Inc.							
! Device:	ADL8142ACPZN							
! Description:	"GaAs, pHEMT, MMIC, Low Noise Amplifier, 23 GHz to 31 GHz"							
! Conditions:	Vdd = 2V							
!	Rbias = 634 Ohms							
!	IDQ = 25 mA							
!	Pin = -30 dBm							
!	Operating Temperature = +25 degC (at package bottom)       							
!								
! Board loss de-embedded from S21 magnitude.  All other RF measurements reference to RF coaxial connector.								
! Frequency (GHz)	S11_Mag (dB)	S11_Phase (deg)	S21_Mag (dB)	S21_Phase (deg)	S12_Mag (dB)	S12_Phase (deg)	S22_Mag (dB)	S22_Phase (deg)
#  GHZ   S   DB   R 50								
0.01	0.011	-0.33	-56.238	-157.193	-47.636	-35.157	-1.003	-178.797
0.109975	-0.021	-4.31	-68.575	-64.096	-64.482	5.091	-1.073	176.784
0.20995	-0.007	-8.086	-68.902	23.878	-60.556	-42.389	-1.062	173.852
0.309924992	-0.012	-12.005	-65.507	98.751	-67.078	175.659	-1.084	171.136
0.4099	-0.024	-15.816	-63.127	90.563	-61.32	-66.365	-1.11	168.248
0.509875008	-0.027	-19.584	-60.916	97.778	-64.193	-71.757	-1.119	165.348
0.609849984	-0.036	-23.371	-64.572	74.572	-68.433	8.153	-1.14	162.486
0.709825024	-0.042	-27.157	-56.335	79.06	-65.182	-86.058	-1.153	159.634
0.8098	-0.04	-30.95	-54.311	42.061	-73.234	-169.086	-1.18	156.769
0.909774976	-0.049	-34.653	-54.292	15.25	-75.858	-110.656	-1.195	153.914
1.009750016	-0.06	-38.421	-52.143	9.802	-67.51	-69.242	-1.215	151.138
1.109725056	-0.066	-42.189	-52.425	-8.016	-65.584	8.186	-1.231	148.244
1.209699968	-0.072	-45.835	-52.146	-19.114	-78.137	97.613	-1.254	145.363
1.309675008	-0.091	-49.506	-50.634	-40.452	-81.256	0.072	-1.277	142.488
1.409650048	-0.092	-53.116	-52.581	-55.283	-68.078	66.455	-1.296	139.559
1.50962496	-0.099	-56.765	-52.626	-64.021	-73.17	116.187	-1.316	136.707
1.6096	-0.114	-60.293	-54.803	-69.245	-63.573	175.207	-1.338	133.819
1.70957504	-0.12	-63.796	-55.903	-70.081	-81.857	-165.486	-1.356	130.919
1.809549952	-0.121	-67.363	-58.62	-120.652	-79.842	146.696	-1.381	127.966
1.909524992	-0.137	-70.849	-58.141	-81.268	-67.324	110.725	-1.394	124.988
2.009500032	-0.148	-74.314	-59.376	-114.155	-68.518	87.535	-1.414	122.032
2.109474944	-0.157	-77.792	-63.571	-118.755	-71.239	-171.865	-1.426	119.046
2.209449984	-0.168	-81.175	-60.953	-122.46	-64.274	87.972	-1.441	116.043
2.309424896	-0.186	-84.571	-62.94	-60.828	-60.646	74.543	-1.449	112.984
2.409400064	-0.183	-87.925	-66.562	-111.814	-67.963	117.255	-1.465	109.956
2.509374976	-0.199	-91.271	-63.593	-80.255	-69.618	50.755	-1.477	106.889
2.609349888	-0.199	-94.566	-65.439	-77.745	-62.555	78.684	-1.488	103.734
2.709325056	-0.223	-97.843	-63.747	-110.839	-71.641	163.677	-1.496	100.642
2.809299968	-0.236	-101.099	-67.235	-107.594	-66.306	46.749	-1.505	97.539
2.90927488	-0.256	-104.357	-68.324	-72.523	-66.793	123.861	-1.506	94.408
3.009250048	-0.271	-107.519	-59.258	-66.831	-74.139	80.518	-1.525	91.342
3.10922496	-0.276	-110.722	-60.933	-92.092	-62.535	109.731	-1.525	88.113
3.209200128	-0.289	-113.911	-58.05	-83.02	-61.842	52.086	-1.532	84.979
3.30917504	-0.307	-117.095	-56.86	-82.987	-67.962	92.33	-1.537	81.838
3.409149952	-0.318	-120.241	-55.621	-127.885	-67.214	104.9	-1.536	78.705
3.50912512	-0.341	-123.328	-55.429	-98.457	-62.181	89.849	-1.545	75.506
3.609100032	-0.357	-126.43	-56.554	-138.185	-66.219	28.207	-1.552	72.377
3.709074944	-0.375	-129.498	-56.377	-118.174	-62.474	8.412	-1.544	69.209
3.809050112	-0.387	-132.57	-54.226	-139.943	-62.936	62.35	-1.55	65.995
3.909025024	-0.407	-135.639	-53.865	-143.332	-61.603	73.781	-1.555	62.781
4.008999936	-0.438	-138.735	-52.92	-155.495	-63.361	74.222	-1.549	59.559
4.108975104	-0.474	-141.855	-52.822	-142.987	-68.871	23.309	-1.542	56.426
4.208950016	-0.506	-144.989	-51.897	-165.2	-61.872	35.315	-1.515	53.336
4.308924928	-0.548	-148.156	-51.87	-168.829	-61.288	65.524	-1.502	50.222
4.408900096	-0.567	-151.225	-50.276	176.62	-63.264	17.401	-1.507	47.092
4.508874752	-0.585	-154.375	-50.543	172.484	-62.527	27.816	-1.519	43.859
4.60884992	-0.603	-157.556	-49.186	165.874	-60.451	38.401	-1.51	40.782
4.708825088	-0.628	-160.789	-49.774	162.252	-64.065	30.491	-1.517	37.635
4.808800256	-0.651	-164.012	-48.046	144.812	-62.958	22.172	-1.517	34.479
4.908774912	-0.675	-167.284	-47.382	144.793	-60.319	10.129	-1.506	31.416
5.00875008	-0.706	-170.576	-47.332	132.67	-63.761	19.715	-1.508	28.381
5.108725248	-0.729	-173.95	-47.637	133.379	-63.128	23.577	-1.504	25.335
5.208699904	-0.76	-177.374	-46.145	120.679	-62.249	8.057	-1.504	22.247
5.308675072	-0.797	179.114	-47.003	117.149	-61.771	2.391	-1.507	19.213
5.40865024	-0.84	175.554	-45.45	106.025	-58.326	21.631	-1.502	16.215
5.508624896	-0.871	172.097	-45.155	101.628	-59.767	24.439	-1.493	13.173
5.608600064	-0.908	168.402	-44.707	92.962	-61.662	8.397	-1.499	10.184
5.708575232	-0.945	164.661	-44.316	89.041	-61.249	-4.921	-1.495	7.178
5.808549888	-0.974	160.861	-43.529	76.811	-58.703	6.157	-1.494	4.188
5.908525056	-1.025	157.025	-43.432	65.472	-61.88	-27.052	-1.493	1.185
6.008500224	-1.056	153.11	-42.693	62.771	-60.515	-9.804	-1.499	-1.803
6.10847488	-1.112	149.14	-42.58	53.021	-60.374	3.174	-1.497	-4.75
6.208450048	-1.152	145.099	-42.395	47.056	-61.361	-4.924	-1.501	-7.722
6.308425216	-1.195	140.982	-41.861	36.9	-59.239	-2.485	-1.501	-10.659
6.408399872	-1.24	136.92	-41.531	31.982	-62.582	1.672	-1.511	-13.583
6.50837504	-1.281	132.808	-41.134	28.727	-60.095	-7.544	-1.507	-16.553
6.608350208	-1.334	128.519	-41.229	21.379	-60.6	-9.892	-1.513	-19.543
6.708324864	-1.368	124.29	-40.935	9.976	-59.296	-21.759	-1.517	-22.422
6.808300032	-1.411	119.95	-40.844	3.143	-62.607	-30.083	-1.526	-25.368
6.9082752	-1.45	115.708	-40.941	-3.93	-59.091	-12.401	-1.523	-28.24
7.008249856	-1.493	111.389	-40.516	-8.665	-56.56	-12.785	-1.537	-31.138
7.108225024	-1.543	106.968	-40.281	-16.921	-57.611	-1.966	-1.539	-33.985
7.208200192	-1.591	102.694	-40.469	-24.809	-59.105	-6.918	-1.543	-36.822
7.308174848	-1.646	98.372	-40.42	-34.033	-56.757	-22.799	-1.557	-39.662
7.408150016	-1.687	94.19	-40.748	-41.515	-57.577	-11.341	-1.552	-42.398
7.508125184	-1.739	90.032	-40.65	-48.49	-56.753	-22.663	-1.558	-45.24
7.60809984	-1.792	85.916	-41.735	-54.977	-57.157	-23.295	-1.569	-48.02
7.708075008	-1.824	81.988	-42.277	-59.987	-56.764	-23.29	-1.573	-50.765
7.808050176	-1.854	78.028	-41.706	-66.343	-56.772	-39.609	-1.585	-53.536
7.908024832	-1.876	74.195	-42.376	-73.471	-57.057	-15.078	-1.595	-56.214
8.008	-1.893	70.397	-42.982	-86.567	-55.436	-29.553	-1.607	-58.972
8.107975168	-1.929	66.662	-43.618	-89.639	-54.36	-48.693	-1.603	-61.693
8.207949824	-1.957	63.091	-44.465	-99.686	-52.727	-52.942	-1.618	-64.319
8.307924992	-1.976	59.684	-44.737	-102.096	-55.939	-42.58	-1.622	-67.044
8.40790016	-1.993	56.379	-46.188	-103.686	-54.316	-59.753	-1.634	-69.765
8.507874816	-1.994	53.094	-46.403	-107.281	-54.051	-56.825	-1.651	-72.383
8.607850496	-1.996	49.897	-47.381	-107.011	-54.883	-72.436	-1.651	-75.066
8.70782464	-1.988	46.952	-47.931	-109.349	-55.632	-59.089	-1.661	-77.76
8.807799808	-1.969	43.992	-48.297	-110.372	-53.861	-65.662	-1.672	-80.502
8.907774976	-1.938	41.113	-49.878	-103.675	-59.602	-74.038	-1.695	-83.205
9.007750144	-1.888	38.324	-49.75	-107.374	-55.048	-66.479	-1.697	-85.852
9.107725312	-1.854	35.476	-50.922	-108.439	-54.787	-97.732	-1.703	-88.532
9.20770048	-1.806	32.699	-51.383	-103.248	-57.878	-76.384	-1.719	-91.268
9.307674624	-1.751	29.934	-51.069	-107.916	-57.319	-99.961	-1.738	-93.982
9.407649792	-1.702	27.251	-50.303	-97.137	-57.041	-88.569	-1.744	-96.717
9.50762496	-1.646	24.621	-50.7	-108.59	-57.244	-94.982	-1.767	-99.476
9.607600128	-1.594	21.957	-50.705	-93.682	-57.921	-104.408	-1.786	-102.273
9.707575296	-1.545	19.379	-52.555	-105.85	-58.03	-126.048	-1.807	-105.079
9.807550464	-1.491	16.759	-51.229	-103.52	-57.472	-98.71	-1.836	-107.942
9.907524608	-1.443	14.194	-52.148	-97.689	-60.726	-93.352	-1.85	-110.801
10.00749978	-1.391	11.576	-51.983	-103.185	-59.492	-119.672	-1.882	-113.709
10.10747494	-1.348	8.989	-51.503	-104.181	-67.186	-95.961	-1.909	-116.734
10.20745011	-1.295	6.438	-51.353	-98.91	-60.406	-83.994	-1.943	-119.792
10.30742528	-1.264	3.923	-50.009	-99.967	-64.544	-107.503	-1.971	-122.945
10.40740045	-1.237	1.276	-50.588	-96.475	-64.531	-107.851	-2.007	-126.114
10.50737459	-1.223	-1.31	-50.541	-98.314	-64.178	-76.767	-2.033	-129.391
10.60734976	-1.192	-3.796	-51.665	-95.017	-66.046	-111.59	-2.074	-132.761
10.70732493	-1.178	-6.38	-51.515	-98.965	-66.764	-116.964	-2.106	-136.191
10.8073001	-1.153	-8.9	-49.986	-99.824	-65.479	-52.151	-2.144	-139.672
10.90727526	-1.155	-11.554	-50.374	-100.636	-66.506	-141.884	-2.183	-143.31
11.00725043	-1.152	-14.176	-51.391	-100.671	-74.79	-14	-2.221	-146.963
11.10722458	-1.158	-16.836	-51.696	-93.009	-62.174	-97.111	-2.251	-150.761
11.20719974	-1.166	-19.575	-51.596	-97.481	-62.827	-41.342	-2.287	-154.614
11.30717491	-1.173	-22.34	-53.534	-91.731	-61.842	-109.112	-2.317	-158.572
11.40715008	-1.185	-25.165	-53.748	-94.256	-66.007	-48.018	-2.348	-162.507
11.50712525	-1.192	-27.962	-52.039	-83.182	-60.992	-99.033	-2.363	-166.571
11.60710042	-1.22	-30.95	-56.872	-65.27	-65.626	-102.208	-2.395	-170.694
11.70707456	-1.238	-33.976	-53.875	-40.709	-67.191	-123.571	-2.406	-174.887
11.80704973	-1.274	-37.161	-52.296	-22.824	-62.012	-107.566	-2.432	-179.119
11.9070249	-1.312	-40.266	-50.415	-11.054	-58.424	-42.518	-2.434	176.625
12.00700006	-1.343	-43.6	-48.262	-6.519	-61.118	-57.363	-2.445	172.376
12.10697523	-1.382	-46.951	-45.082	-6.578	-61.153	-49.119	-2.449	168.099
12.2069504	-1.419	-50.417	-43.335	-9.799	-59.924	-59.485	-2.446	163.757
12.30692454	-1.474	-54.075	-41.608	-7.166	-58.625	-54.99	-2.438	159.473
12.40689971	-1.533	-57.8	-40.012	-10.173	-57.068	-65.059	-2.45	155.219
12.50687488	-1.587	-61.681	-37.725	-16.213	-57.702	-62.664	-2.426	151.016
12.60685005	-1.65	-65.691	-36.335	-18.555	-56.632	-90.024	-2.42	146.837
12.70682522	-1.712	-69.87	-34.855	-21.714	-54.757	-74.134	-2.4	142.691
12.80680038	-1.778	-74.129	-33.428	-27.465	-52.9	-80.627	-2.388	138.551
12.90677453	-1.855	-78.632	-32.187	-31.372	-53.552	-79.426	-2.364	134.531
13.0067497	-1.932	-83.307	-30.922	-36.156	-53.911	-77.234	-2.332	130.63
13.10672486	-2.007	-88.025	-29.662	-41.1	-53.051	-91.319	-2.313	126.76
13.20670003	-2.086	-92.998	-28.657	-46.082	-52.892	-104.263	-2.268	123.011
13.3066752	-2.176	-98.149	-27.55	-51.158	-52.742	-95.179	-2.25	119.388
13.40665037	-2.264	-103.436	-26.583	-55.919	-51.099	-92.695	-2.214	115.879
13.50662451	-2.342	-108.932	-25.598	-61.414	-50.061	-113.042	-2.193	112.474
13.60659968	-2.426	-114.51	-24.636	-66.773	-51.574	-110.446	-2.163	109.05
13.70657485	-2.511	-120.264	-23.758	-72.418	-50.151	-113.862	-2.127	105.827
13.80655002	-2.591	-126.049	-22.894	-77.643	-50.467	-114.849	-2.097	102.792
13.90652518	-2.656	-132.083	-22.041	-83.327	-49.655	-129.527	-2.064	99.653
14.00650035	-2.715	-138.053	-21.293	-88.479	-49.19	-123.223	-2.039	96.845
14.1064745	-2.761	-144.149	-20.58	-93.748	-50.368	-128.188	-2.022	93.969
14.20644966	-2.808	-150.233	-19.843	-99.084	-48.485	-134.213	-1.995	91.244
14.30642483	-2.841	-156.312	-19.188	-104.176	-49.279	-136.294	-1.969	88.597
14.4064	-2.874	-162.38	-18.468	-109.299	-48.444	-144.377	-1.956	86.14
14.50637517	-2.887	-168.323	-17.826	-114.304	-48.272	-147.861	-1.933	83.67
14.60635034	-2.898	-174.215	-17.216	-119.372	-48.304	-154.553	-1.92	81.194
14.7063255	-2.898	179.996	-16.601	-124.4	-47.988	-153.783	-1.917	78.828
14.80629965	-2.889	174.398	-15.978	-129.138	-48.244	-156.416	-1.906	76.539
14.90627482	-2.871	168.981	-15.388	-134.01	-47.408	-161.261	-1.892	74.356
15.00624998	-2.842	163.69	-14.791	-138.701	-48.386	-168.183	-1.895	72.113
15.10622515	-2.827	158.587	-14.241	-143.364	-47.457	-164.692	-1.905	69.996
15.20620032	-2.787	153.718	-13.679	-147.893	-47.127	-171.71	-1.908	67.847
15.30617549	-2.767	148.946	-13.115	-152.377	-46.97	-176.012	-1.911	65.7
15.40614963	-2.731	144.371	-12.555	-156.855	-46.321	-179.84	-1.933	63.656
15.5061248	-2.692	139.979	-11.988	-161.244	-47.581	179.356	-1.936	61.569
15.60609997	-2.665	135.851	-11.453	-165.557	-47.1	172.593	-1.954	59.455
15.70607514	-2.651	131.684	-10.892	-169.714	-46.147	170.851	-1.979	57.318
15.8060503	-2.622	127.709	-10.333	-173.95	-46.757	166.548	-1.999	55.204
15.90602547	-2.592	123.848	-9.772	-178.264	-45.743	160.312	-2.023	53.007
16.00599962	-2.577	120.196	-9.221	177.701	-45.568	159.152	-2.059	50.822
16.10597478	-2.562	116.531	-8.668	173.47	-45.546	154.688	-2.094	48.625
16.20594995	-2.549	113.003	-8.099	169.308	-45.363	151.95	-2.13	46.222
16.30592512	-2.542	109.568	-7.543	165.223	-45.761	155.032	-2.18	43.967
16.40590029	-2.532	106.269	-6.963	161.068	-45.29	146.5	-2.227	41.546
16.50587546	-2.532	103.021	-6.405	156.908	-45.807	142.322	-2.27	39.066
16.6058496	-2.539	99.745	-5.826	152.712	-44.456	143.915	-2.321	36.465
16.70582477	-2.549	96.619	-5.248	148.579	-45.278	138.093	-2.39	33.82
16.80579994	-2.56	93.555	-4.656	144.333	-45.599	131.145	-2.461	31.123
16.9057751	-2.583	90.467	-4.071	140.178	-44.465	132.927	-2.534	28.256
17.00575027	-2.605	87.459	-3.471	135.844	-44.523	131.63	-2.605	25.338
17.10572544	-2.627	84.444	-2.884	131.517	-43.184	127.679	-2.693	22.198
17.20570061	-2.672	81.337	-2.286	127.119	-44.161	122.588	-2.778	19.061
17.30567578	-2.703	78.382	-1.678	122.689	-43.643	121.294	-2.863	15.635
17.40565094	-2.753	75.328	-1.071	118.277	-42.709	116.136	-2.987	12.221
17.50562406	-2.809	72.247	-0.45	113.671	-43.733	110.461	-3.085	8.587
17.60559923	-2.887	69.157	0.148	109.011	-42.754	110.825	-3.204	4.719
17.7055744	-2.953	65.952	0.77	104.257	-42.33	104.301	-3.312	0.736
17.80554957	-3.034	62.741	1.383	99.481	-42.707	99.572	-3.437	-3.325
17.90552474	-3.123	59.404	1.99	94.501	-42.115	97.858	-3.552	-7.652
18.0054999	-3.21	55.992	2.615	89.547	-41.805	96.763	-3.671	-12.15
18.10547507	-3.329	52.409	3.22	84.443	-41.67	91.06	-3.79	-16.796
18.20545024	-3.444	48.737	3.831	79.226	-41.633	82.864	-3.914	-21.555
18.30542541	-3.574	44.958	4.431	73.957	-41.311	78.313	-4.017	-26.481
18.40540058	-3.723	40.899	5.036	68.592	-41.113	78.359	-4.132	-31.468
18.50537574	-3.869	36.685	5.626	63.076	-41.25	70.791	-4.213	-36.66
18.60535091	-4.023	32.192	6.208	57.557	-41.187	65.901	-4.293	-41.959
18.70532403	-4.184	27.538	6.787	51.931	-40.705	62.578	-4.359	-47.304
18.8052992	-4.356	22.536	7.359	46.215	-40.716	55.578	-4.396	-52.515
18.90527437	-4.535	17.361	7.902	40.483	-40.628	55.717	-4.445	-57.777
19.00524954	-4.731	11.843	8.45	34.669	-40.726	49.471	-4.455	-62.93
19.1052247	-4.911	5.977	8.987	28.717	-40.049	45.817	-4.453	-68.135
19.20519987	-5.082	-0.194	9.499	22.805	-40.357	39.088	-4.45	-73.172
19.30517504	-5.248	-6.616	10.002	16.951	-40.589	35.853	-4.439	-78.045
19.40515021	-5.405	-13.485	10.488	10.9	-40.68	29.012	-4.406	-82.813
19.50512538	-5.537	-20.423	10.962	4.891	-40.709	23.516	-4.364	-87.438
19.60510054	-5.626	-27.715	11.42	-1.068	-40.438	20.246	-4.312	-91.901
19.70507571	-5.685	-35.088	11.858	-7.077	-40.592	13.445	-4.233	-96.04
19.80505088	-5.715	-42.686	12.285	-12.994	-40.298	9.928	-4.169	-100.042
19.905024	-5.699	-50.172	12.692	-18.968	-40.408	3.299	-4.117	-103.864
20.00499917	-5.654	-57.86	13.083	-24.799	-40.782	2.027	-4.036	-107.575
20.10497434	-5.555	-65.438	13.477	-30.665	-41.358	-4.328	-3.972	-110.953
20.2049495	-5.452	-72.73	13.856	-36.538	-41.147	-14.465	-3.897	-114.448
20.30492467	-5.295	-80.039	14.219	-42.327	-41.181	-12.547	-3.814	-117.737
20.40489984	-5.125	-87.138	14.572	-48.071	-41.68	-21.325	-3.74	-120.951
20.50487501	-4.943	-94.065	14.893	-53.779	-42.198	-25.432	-3.685	-124.031
20.60485018	-4.75	-100.587	15.233	-59.363	-41.971	-28.965	-3.615	-126.938
20.70482534	-4.552	-106.736	15.545	-64.9	-42.179	-34.569	-3.567	-129.636
20.80480051	-4.348	-112.593	15.868	-70.289	-43.167	-39.306	-3.491	-132.322
20.90477568	-4.14	-118.275	16.191	-75.705	-42.907	-41.47	-3.435	-135.025
21.00475085	-3.94	-123.753	16.512	-81.055	-43.607	-42.075	-3.39	-137.628
21.10472602	-3.749	-128.977	16.824	-86.249	-44.095	-49.571	-3.338	-140.092
21.20469914	-3.563	-133.931	17.137	-91.47	-45.018	-51.455	-3.301	-142.658
21.3046743	-3.39	-138.704	17.444	-96.556	-45.514	-57.16	-3.264	-145.015
21.40464947	-3.228	-143.276	17.766	-101.628	-45.801	-56.512	-3.233	-147.497
21.50462464	-3.093	-147.535	18.086	-106.663	-46.818	-65.066	-3.219	-149.879
21.60459981	-2.957	-151.662	18.412	-111.592	-46.458	-60.923	-3.207	-152.15
21.70457498	-2.859	-155.55	18.765	-116.487	-48.457	-64.894	-3.203	-154.495
21.80455014	-2.755	-159.374	19.11	-121.392	-48.557	-61.713	-3.211	-156.685
21.90452531	-2.659	-163.074	19.491	-126.263	-48.221	-63.056	-3.224	-158.98
22.00450048	-2.572	-166.697	19.887	-131.185	-50.199	-62.554	-3.236	-161.207
22.10447565	-2.502	-170.267	20.29	-136.192	-49.955	-66.823	-3.27	-163.433
22.20445082	-2.448	-173.779	20.706	-141.102	-49.876	-57.402	-3.298	-165.669
22.30442598	-2.409	-177.363	21.143	-146.185	-50.131	-68.732	-3.336	-168.033
22.4043991	-2.386	179.157	21.615	-151.311	-52.856	-62.236	-3.391	-170.304
22.50437427	-2.376	175.554	22.087	-156.571	-51.774	-64.204	-3.446	-172.735
22.60434944	-2.379	171.911	22.601	-161.983	-52.581	-49.076	-3.521	-175.111
22.70432461	-2.423	168.171	23.114	-167.492	-52.896	-51.655	-3.615	-177.732
22.80429978	-2.485	164.276	23.641	-172.972	-52.99	-50.493	-3.745	179.602
22.90427494	-2.573	160.199	24.212	-178.771	-52.358	-42.265	-3.864	176.884
23.00425011	-2.688	155.964	24.791	175.158	-52.402	-44.012	-4.023	173.816
23.10422528	-2.85	151.344	25.397	168.85	-52.622	-44.762	-4.221	171.006
23.20420045	-3.029	146.324	25.995	162.103	-52.426	-41.482	-4.451	167.588
23.30417562	-3.292	140.948	26.584	155.201	-51.134	-36.145	-4.721	164.174
23.40415078	-3.619	135.313	27.176	147.965	-49.648	-39.752	-5.044	160.538
23.50412595	-4.036	128.968	27.751	140.249	-48.911	-35.072	-5.433	156.578
23.60409907	-4.587	122.361	28.276	132.111	-47.095	-33.054	-5.919	152.383
23.70407424	-5.208	115.292	28.764	123.998	-47.142	-39.093	-6.506	148.22
23.80404941	-5.94	107.656	29.216	115.673	-45.943	-41.359	-7.191	143.759
23.90402458	-6.734	99.219	29.646	107.062	-46.995	-55.149	-8.015	138.99
24.00399974	-7.798	89.47	30.022	98.06	-45.204	-49.706	-8.968	134.823
24.10397491	-8.961	78.459	30.326	88.773	-44.818	-61.174	-10.085	130.826
24.20395008	-10.279	66.015	30.54	79.723	-44.288	-65.718	-11.351	127.264
24.30392525	-11.707	51.798	30.711	70.392	-44.246	-73.912	-12.765	123.738
24.40390042	-13.153	35.264	30.787	61.245	-44.097	-75.929	-14.383	120.978
24.50387558	-14.331	16.096	30.803	52.349	-44.371	-82.144	-16.226	118.234
24.60385075	-15.017	-4.452	30.773	43.664	-44.08	-88.07	-18.472	117.344
24.70382592	-15.099	-24.831	30.696	35.407	-44.755	-91.776	-20.912	117.631
24.80379904	-14.756	-41.852	30.571	27.438	-44.031	-98.132	-24.054	120.304
24.90377421	-14.304	-56.452	30.445	19.854	-44.549	-100.842	-27.522	127.877
25.00374938	-13.79	-67.437	30.293	12.52	-44.31	-107.819	-32.263	146.719
25.10372454	-13.318	-76.544	30.14	5.459	-45.67	-112.15	-35.645	-162.961
25.20369971	-12.98	-83.788	29.991	-1.316	-45.581	-119.515	-31.711	-122.188
25.30367488	-12.707	-89.179	29.835	-7.935	-46.084	-116.005	-28.055	-105.57
25.40365005	-12.511	-94.178	29.682	-14.419	-45.539	-122.735	-25.527	-101.076
25.50362522	-12.376	-97.765	29.513	-20.706	-46.768	-126.893	-23.467	-97.816
25.60360038	-12.273	-100.727	29.347	-26.717	-46.596	-126.452	-22.053	-95.06
25.70357555	-12.269	-102.891	29.189	-32.6	-46.63	-134.793	-20.771	-94.408
25.80355072	-12.271	-104.624	29.054	-38.251	-47.64	-130.982	-19.634	-94.267
25.90352589	-12.272	-105.265	28.912	-43.885	-47.947	-127.501	-18.827	-95.521
26.00349901	-12.287	-106.127	28.795	-49.445	-47.984	-139.729	-18.198	-96.275
26.10347418	-12.357	-106.438	28.677	-54.954	-48.272	-137.062	-17.584	-97.311
26.20344934	-12.43	-106.57	28.577	-60.398	-48.08	-139.128	-17.046	-97.952
26.30342451	-12.514	-106.44	28.484	-65.833	-48.81	-144.627	-16.583	-98.55
26.40339968	-12.618	-106.264	28.385	-71.223	-48.545	-151.97	-16.278	-99.273
26.50337485	-12.764	-105.599	28.301	-76.701	-50.529	-153.467	-15.919	-100.189
26.60335002	-12.837	-104.52	28.217	-81.978	-48.405	-146.833	-15.734	-101.159
26.70332518	-13.026	-103.472	28.147	-87.333	-49.607	-149.089	-15.646	-102.554
26.80330035	-13.12	-102.041	28.086	-92.906	-48.755	-153.696	-15.53	-103.711
26.90327552	-13.293	-100.469	28.003	-98.18	-52.54	-178.267	-15.391	-105.052
27.00325069	-13.471	-97.916	27.944	-103.655	-51.852	-172.491	-15.461	-105.61
27.10322586	-13.483	-95.416	27.878	-109.062	-50.919	-147.745	-15.68	-107.61
27.20319898	-13.455	-93.027	27.817	-114.45	-50.309	-130.443	-16.003	-108.325
27.30317414	-13.399	-89.272	27.736	-119.819	-51.603	-144.271	-16.231	-109.239
27.40314931	-13.285	-86.462	27.669	-125.233	-54.207	-140.467	-16.653	-111.057
27.50312448	-13.21	-83.735	27.606	-130.607	-50.422	-171.756	-17.304	-110.821
27.60309965	-13.078	-81.241	27.542	-136.059	-47.796	-156.612	-17.954	-109.421
27.70307482	-12.779	-78.494	27.459	-141.359	-51.27	-167.559	-18.59	-108.396
27.80304998	-12.531	-77.017	27.396	-146.653	-50.766	-148.719	-19.395	-105.896
27.90302515	-12.302	-75.335	27.339	-151.971	-48.889	-146.684	-20.356	-102.849
28.00300032	-11.944	-73.458	27.281	-157.129	-46.164	-147.984	-21.21	-103.283
28.10297549	-11.889	-73.397	27.247	-162.213	-47.043	-145.38	-22.396	-94.275
28.20295066	-11.652	-72.417	27.228	-167.255	-47.385	-143.776	-23.271	-88.679
28.30292582	-11.47	-71.689	27.224	-172.374	-49.86	-161.563	-24.307	-81.08
28.40290099	-11.35	-71.643	27.234	-177.472	-51.106	-159.867	-25.562	-69.566
28.50287411	-11.253	-71.711	27.243	177.351	-49.319	-168.175	-26.45	-53.066
28.60284928	-11.156	-71.489	27.279	172.18	-47.392	-177.272	-25.731	-32.727
28.70282445	-11.2	-70.669	27.299	167.04	-47.22	-154.705	-24.707	-19.015
28.80279962	-11.265	-70.635	27.318	161.775	-46.072	-151.445	-22.561	-4.826
28.90277478	-11.331	-71.615	27.36	156.533	-49.184	-178.74	-21.298	3.248
29.00274995	-11.419	-71.446	27.389	151.22	-47.82	-175.136	-19.62	8.116
29.10272512	-11.587	-70.984	27.417	145.95	-49.523	-163.691	-17.824	10.503
29.20270029	-11.688	-70.455	27.431	140.635	-47.204	-169.029	-16.46	11.579
29.30267546	-11.886	-70.308	27.456	135.235	-46.821	-175.941	-15.182	12.768
29.40265062	-12.183	-69.369	27.478	129.85	-47.229	164.645	-14.063	13.684
29.50262579	-12.476	-68.511	27.504	124.509	-46.661	174.438	-13.038	13.116
29.60260096	-12.802	-66.928	27.5	119.096	-49.393	173.831	-11.945	12.386
29.70257408	-13.08	-65.743	27.484	113.5	-49.376	167.5	-11.05	11.245
29.80254925	-13.368	-64.175	27.471	108.09	-47.805	169.362	-10.267	10.167
29.90252442	-13.684	-63.5	27.421	102.499	-46.892	172.742	-9.464	8.543
30.00249958	-13.968	-61.37	27.378	96.881	-45.718	171.542	-8.781	7.019
30.10247475	-14.387	-56.9	27.319	91.368	-45.618	154.934	-8.116	5.322
30.20244992	-14.695	-54.583	27.219	85.731	-45.608	162.184	-7.587	3.112
30.30242509	-14.938	-49.729	27.117	80.201	-45.378	149.05	-6.989	1.437
30.40240026	-15.077	-46.045	27.009	74.657	-46.247	148.947	-6.545	-0.842
30.50237542	-15.186	-41.541	26.871	69.108	-46.075	146.033	-6.108	-2.642
30.60235059	-15.098	-37.541	26.703	63.824	-46.773	146.354	-5.764	-4.579
30.70232576	-14.914	-33.48	26.54	58.39	-46.59	147.185	-5.415	-6.413
30.80230093	-14.642	-29.62	26.351	53.162	-47.272	134.361	-5.115	-8.522
30.90227405	-14.434	-26.112	26.151	47.869	-46.208	141.366	-4.851	-10.258
31.00224922	-14.262	-23.927	25.941	42.783	-48.13	123.287	-4.646	-12.377
31.10222438	-13.895	-21.004	25.729	37.741	-45.423	124.632	-4.412	-14.243
31.20219955	-13.71	-18.606	25.52	32.734	-47.899	115.045	-4.321	-15.769
31.30217472	-13.476	-16.676	25.306	27.832	-46.925	116.054	-4.186	-17.648
31.40214989	-13.211	-14.738	25.107	23.024	-47.107	121.137	-4.099	-19.094
31.50212506	-13.046	-12.761	24.899	18.212	-45.127	126.895	-4.038	-20.771
31.60210022	-12.842	-11.195	24.676	13.343	-48.47	111.015	-4.013	-22.295
31.70207539	-12.702	-10.255	24.467	8.646	-45.359	111.457	-3.979	-24.106
31.80205056	-12.66	-8.601	24.226	4.054	-49.61	100.053	-3.99	-25.263
31.90202573	-12.559	-8.297	24.023	-0.4	-47.549	102.362	-3.992	-26.941
32.0020009	-12.563	-7.023	23.823	-4.65	-46.606	89.045	-4.08	-28.449
32.10197402	-12.537	-5.947	23.641	-8.952	-47.237	97.27	-4.173	-29.818
32.20194918	-12.524	-3.912	23.488	-13.227	-47.814	90.031	-4.252	-31.404
32.30192435	-12.58	-1.792	23.351	-17.593	-45.979	96.525	-4.415	-32.635
32.40189952	-12.552	0.621	23.231	-21.867	-46.668	90.313	-4.561	-33.891
32.50187469	-12.553	2.135	23.135	-26.148	-45.8	91.454	-4.754	-35.23
32.60184986	-12.527	4.544	23.046	-30.415	-49.188	88.943	-4.955	-36.804
32.70182502	-12.505	7.65	22.981	-34.973	-45.509	85.862	-5.167	-38.425
32.80180019	-12.375	10.058	22.921	-39.319	-47.699	88.814	-5.412	-40.036
32.90177536	-12.288	12.542	22.882	-43.697	-47.827	73.042	-5.673	-41.521
33.00175053	-12.178	14.455	22.834	-48.389	-45.865	67.418	-5.96	-43.153
33.1017257	-11.942	16.985	22.817	-52.809	-46.662	71.958	-6.362	-44.526
33.20170086	-11.739	19.246	22.79	-57.466	-47.516	58.572	-6.787	-46.354
33.30167398	-11.545	20.726	22.77	-62.095	-45.756	76.248	-7.246	-48.087
33.40164915	-11.393	22.265	22.753	-66.911	-46.221	79.094	-7.709	-49.975
33.50162432	-11.121	23.976	22.728	-71.626	-46.678	59.572	-8.237	-51.78
33.60159949	-10.982	25.61	22.704	-76.507	-43.984	58.54	-8.841	-54.151
33.70157466	-10.701	27.07	22.674	-81.324	-44.848	52.947	-9.464	-56.17
33.80154982	-10.351	27.87	22.65	-86.131	-45.392	49.516	-10.302	-58.225
33.90152499	-10.168	28.4	22.592	-91.019	-44.579	49.908	-11.207	-60.693
34.00150016	-9.901	28.92	22.553	-95.905	-44.514	37.909	-12.246	-62.644
34.10147533	-9.731	29.525	22.493	-100.741	-45.326	36.826	-13.415	-65.515
34.2014505	-9.591	29.98	22.429	-105.65	-45.749	52.915	-14.636	-67.419
34.30142566	-9.384	30.8	22.328	-110.467	-45.138	35.071	-16.092	-70.805
34.40139878	-9.236	31.328	22.23	-115.257	-44.512	25.052	-18.194	-75.416
34.50137395	-9.088	31.796	22.102	-120.088	-45.316	34.02	-20.633	-81.754
34.60134912	-8.974	31.575	21.961	-124.902	-45.508	34.451	-24.237	-93.151
34.70132429	-8.798	31.558	21.822	-129.718	-45.42	16.903	-28.761	-118.284
34.80129946	-8.782	31.696	21.664	-134.402	-46.293	5.649	-30.986	-175.05
34.90127462	-8.744	32.203	21.492	-139.13	-45.686	3.046	-26.295	146.058
35.00124979	-8.672	32.415	21.31	-143.891	-44.343	2.867	-22.238	131.99
35.10122496	-8.615	33.228	21.113	-148.565	-45.921	7.443	-19.372	124.279
35.20120013	-8.616	33.091	20.894	-153.204	-43.298	-10.034	-17.319	121.046
35.3011753	-8.603	34.281	20.665	-157.923	-44.637	3.083	-15.352	117.899
35.40115046	-8.66	34.612	20.43	-162.464	-46.507	-16.291	-13.809	115.7
35.50112563	-8.601	35.033	20.17	-167.055	-43.574	-12.726	-12.744	113.074
35.6011008	-8.594	36.018	19.91	-171.586	-48.041	-13.677	-11.772	111
35.70107597	-8.549	36.928	19.608	-175.707	-46.304	-12.512	-10.917	109.353
35.80105114	-8.563	37.566	19.337	179.789	-45.094	-28.775	-10.09	107.081
35.9010263	-8.587	39.331	19.019	175.71	-44.258	-40.906	-9.463	106.395
36.00100147	-8.617	40.482	18.754	171.557	-45.355	-29.345	-8.906	105.118
36.10097664	-8.622	41.231	18.447	167.407	-46.919	-15.172	-8.35	104.394
36.20095181	-8.68	42.082	18.141	163.58	-46.443	-30.298	-7.878	103.758
36.30092698	-8.65	43.119	17.821	159.667	-46.581	-28.559	-7.424	102.337
36.40089805	-8.67	44.048	17.541	155.65	-44.639	-47.243	-7.029	101.368
36.50087322	-8.647	45.187	17.272	151.859	-44.728	-40.083	-6.694	100.679
36.60084838	-8.709	46.297	16.979	148.088	-45.011	-58.901	-6.418	99.907
36.70082355	-8.703	47.525	16.691	144.481	-47.643	-49.56	-6.205	99.178
36.80079872	-8.691	48.832	16.48	140.862	-48.451	-59.676	-5.957	98.69
36.90077389	-8.721	49.334	16.218	137.245	-45.203	-61.051	-5.735	98.089
37.00074906	-8.731	50.031	15.985	133.805	-44.797	-75.836	-5.521	97.593
37.10072422	-8.73	50.708	15.781	130.293	-47.41	-67.886	-5.346	96.899
37.20069939	-8.739	51.161	15.584	126.868	-46.136	-62.829	-5.129	96.477
37.30067456	-8.777	52.215	15.4	123.624	-46.385	-68.059	-5.04	95.988
37.40064973	-8.75	52.411	15.227	120.223	-45.895	-69.469	-4.926	95.438
37.5006249	-8.803	52.628	15.083	116.767	-46.847	-72.242	-4.848	94.707
37.60060006	-8.933	53.088	14.969	113.575	-46.488	-78.539	-4.795	94.357
37.70057523	-8.992	53.365	14.839	110.297	-46.09	-98.398	-4.758	94.031
37.8005504	-9.119	53.86	14.77	107.167	-45.253	-81.158	-4.642	93.741
37.90052557	-9.166	54.429	14.677	103.803	-45.866	-72.983	-4.587	93.248
38.00050074	-9.264	54.622	14.598	100.592	-47.213	-88.736	-4.577	93.097
38.1004759	-9.394	54.581	14.529	97.384	-48.373	-80.717	-4.555	92.192
38.20045107	-9.617	54.774	14.473	94.205	-46.661	-86.924	-4.558	91.492
38.30042624	-9.786	54.878	14.452	90.836	-46.256	-90.71	-4.573	91.032
38.40040141	-9.895	54.907	14.423	87.595	-48.706	-92.571	-4.518	90.827
38.50037658	-10.115	55.177	14.391	84.458	-46.465	-88.166	-4.666	90.456
38.60035174	-10.295	55.58	14.367	81.096	-48.305	-104.024	-4.661	89.853
38.70032691	-10.547	56.336	14.373	77.754	-47.572	-73.92	-4.712	89.447
38.80029798	-10.762	56.214	14.336	74.333	-46.232	-109.197	-4.734	88.675
38.90027315	-11.004	56.434	14.325	71.14	-45.5	-126.521	-4.818	88.353
39.00024832	-11.347	57.103	14.316	67.614	-46.747	-112.229	-4.891	87.389
39.10022349	-11.672	57.422	14.291	64.35	-46.251	-128.278	-5.079	87.16
39.20019866	-12.069	57.395	14.276	60.972	-45.8	-122.587	-5.143	86.174
39.30017382	-12.468	58.516	14.276	57.528	-44.768	-108.194	-5.25	85.69
39.40014899	-13.083	59.819	14.259	54.053	-44.823	-137.446	-5.438	85.255
39.50012416	-13.626	61.275	14.244	50.44	-49.887	-156.65	-5.588	84.761
39.60009933	-14.215	62.325	14.191	46.637	-42.899	-131.66	-5.805	83.485
39.7000745	-14.935	64.049	14.173	43.194	-45.324	-145.809	-5.96	83.089
39.80004966	-15.44	66.037	14.158	39.555	-43.37	-151.645	-6.237	81.343
39.90002483	-16.366	68.32	14.116	36.072	-44.38	-149.804	-6.44	80.611
40	-17.147	72.309	14.055	32.124	-44.113	-147.999	-6.78	79.433
